32	0

0	4	2	3	4	8
2	4	5	6	7	10
2	4	5	6	7	10
2	4	5	6	7	10
4	1	9
3	1	9
7	3	11	12	13
9	3	11	12	13
3	3	11	12	13
5	3	11	12	13
6	4	14	15	16	17
6	4	14	15	16	17
7	3	14	15	17
7	4	19	20	21	22
1	1	18
2	1	18
2	4	19	20	21	22
3	4	19	20	21	22
8	1	23
6	1	23
10	1	24
8	1	23
10	1	24
2	1	25
9	4	26	27	28	29
4	1	30
10	1	31
7	1	30
3	1	30
2	1	31
10	1	32
0	0
